GLPSOL: GLPK LP/MIP Solver, v4.61
Parameter(s) specified in the command line:
 -m ../mdgp.mod -d ../dats/RanInt_n010_ds_07.dat -o RanInt_n010_ds_07.sol
 --tmlim 3600
Reading model section from ../mdgp.mod...
../mdgp.mod:57: warning: final NL missing before end of file
57 lines were read
Reading data section from ../dats/RanInt_n010_ds_07.dat...
../dats/RanInt_n010_ds_07.dat:72: warning: unexpected end of file; missing end statement inserted
72 lines were read
Generating obj...
Generating pertenceGrupo...
Generating minimoIndividuosGrupo...
Generating maximoIndividuosGrupo...
Generating individuosMesmoGrupo...
Generating relIndividuoGrupoMin...
Generating relIndividuoGrupoMax...
Model has been successfully generated
GLPK Integer Optimizer, v4.61
235 rows, 200 columns, 1180 non-zeros
200 integer variables, all of which are binary
Preprocessing...
180 hidden covering inequaliti(es) were detected
234 rows, 200 columns, 1000 non-zeros
200 integer variables, all of which are binary
Scaling...
 A: min|aij| =  1.000e+00  max|aij| =  5.000e+00  ratio =  5.000e+00
Problem data seem to be well scaled
Constructing initial basis...
Size of triangular part is 234
Solving LP relaxation...
GLPK Simplex Optimizer, v4.61
234 rows, 200 columns, 1000 non-zeros
      0: obj =  -0.000000000e+00 inf =   1.280e+02 (102)
     83: obj =   1.223500000e+03 inf =   2.546e-14 (0)
*   245: obj =   3.732500000e+03 inf =   2.112e-14 (0) 1
OPTIMAL LP SOLUTION FOUND
Integer optimization begins...
+   245: mip =     not found yet <=              +inf        (1; 0)
+   420: >>>>>   2.559000000e+03 <=   3.720000000e+03  45.4% (7; 0)
+   835: >>>>>   2.667000000e+03 <=   3.213000000e+03  20.5% (13; 5)
+   907: >>>>>   2.753000000e+03 <=   3.152000000e+03  14.5% (9; 14)
+  1413: mip =   2.753000000e+03 <=     tree is empty   0.0% (0; 57)
INTEGER OPTIMAL SOLUTION FOUND
Time used:   0.1 secs
Memory used: 0.8 Mb (832890 bytes)
Writing MIP solution to 'RanInt_n010_ds_07.sol'...
